\ Equation counts
\     Total        E        G        L        N        X        C        B
\        64       64        0        0        0        0        0        0
\ 
\ Variable counts
\                  x        b        i      s1s      s2s       sc       si
\     Total     cont   binary  integer     sos1     sos2    scont     sint
\       192        0      192        0        0        0        0        0
\ 
\ Nonzero counts
\     Total    const       NL      DLL
\       384      192      192        0
\ 
Minimize
 obj: 0 b2 + 0 b3 + 0 b4 + 0 b5 + 0 b6 + 0 b7 + 0 b8 + 0 b9 + 0 b10 + 0 b11 + 0 b12 + 0 b13 + 0 b14 + 0 b15 
  + 0 b16 + 0 b17 + 0 b18 + 0 b19 + 0 b20 + 0 b21 + 0 b22 + 0 b23 + 0 b24 + 0 b25 + 0 b26 + 0 b27 + 0 b28 
  + 0 b29 + 0 b30 + 0 b31 + 0 b32 + 0 b33 + 0 b34 + 0 b35 + 0 b36 + 0 b37 + 0 b38 + 0 b39 + 0 b40 + 0 b41 
  + 0 b42 + 0 b43 + 0 b44 + 0 b45 + 0 b46 + 0 b47 + 0 b48 + 0 b49 + 0 b50 + 0 b51 + 0 b52 + 0 b53 + 0 b54 
  + 0 b55 + 0 b56 + 0 b57 + 0 b58 + 0 b59 + 0 b60 + 0 b61 + 0 b62 + 0 b63 + 0 b64 + 0 b65 + 0 b66 + 0 b67 
  + 0 b68 + 0 b69 + 0 b70 + 0 b71 + 0 b72 + 0 b73 + 0 b74 + 0 b75 + 0 b76 + 0 b77 + 0 b78 + 0 b79 + 0 b80 
  + 0 b81 + 0 b82 + 0 b83 + 0 b84 + 0 b85 + 0 b86 + 0 b87 + 0 b88 + 0 b89 + 0 b90 + 0 b91 + 0 b92 + 0 b93 
  + 0 b94 + 0 b95 + 0 b96 + 0 b97 + 0 b98 + 0 b99 + 0 b100 + 0 b101 + 0 b102 + 0 b103 + 0 b104 + 0 b105 
  + 0 b106 + 0 b107 + 0 b108 + 0 b109 + 0 b110 + 0 b111 + 0 b112 + 0 b113 + 0 b114 + 0 b115 + 0 b116 
  + 0 b117 + 0 b118 + 0 b119 + 0 b120 + 0 b121 + 0 b122 + 0 b123 + 0 b124 + 0 b125 + 0 b126 + 0 b127 
  + 0 b128 + 0 b129 + 0 b130 + 0 b131 + 0 b132 + 0 b133 + 0 b134 + 0 b135 + 0 b136 + 0 b137 + 0 b138 
  + 0 b139 + 0 b140 + 0 b141 + 0 b142 + 0 b143 + 0 b144 + 0 b145 + 0 b146 + 0 b147 + 0 b148 + 0 b149 
  + 0 b150 + 0 b151 + 0 b152 + 0 b153 + 0 b154 + 0 b155 + 0 b156 + 0 b157 + 0 b158 + 0 b159 + 0 b160 
  + 0 b161 + 0 b162 + 0 b163 + 0 b164 + 0 b165 + 0 b166 + 0 b167 + 0 b168 + 0 b169 + 0 b170 + 0 b171 
  + 0 b172 + 0 b173 + 0 b174 + 0 b175 + 0 b176 + 0 b177 + 0 b178 + 0 b179 + 0 b180 + 0 b181 + 0 b182 
  + 0 b183 + 0 b184 + 0 b185 + 0 b186 + 0 b187 + 0 b188 + 0 b189 + 0 b190 + 0 b191 + 0 b192 + 0 b193 + 
  [ - 2 b2 * b3 + 2 b2 * b4 - 2 b2 * b5 - 2 b2 * b6 + 2 b2 * b7 - 2 b2 * b8 + 2 b3 * b9 + 2 b3 * b10 
  + 2 b3 * b11 + 2 b3 * b12 - 2 b3 * b13 - 2 b4 * b9 + 2 b4 * b14 + 2 b4 * b15 + 2 b4 * b16 + 2 b4 * b17 
  + 2 b5 * b10 - 2 b5 * b14 - 2 b5 * b18 + 2 b5 * b19 + 2 b5 * b20 - 2 b6 * b11 - 2 b6 * b15 + 2 b6 * b18 
  - 2 b6 * b21 - 2 b6 * b22 + 2 b7 * b12 + 2 b7 * b16 - 2 b7 * b19 + 2 b7 * b21 + 2 b7 * b23 + 2 b8 * b13 
  - 2 b8 * b17 - 2 b8 * b20 + 2 b8 * b22 + 2 b8 * b23 + 2 b9 * b24 - 2 b9 * b25 - 2 b9 * b26 - 2 b9 * b27 
  + 2 b10 * b24 + 2 b10 * b28 + 2 b10 * b29 - 2 b10 * b30 - 2 b11 * b25 + 2 b11 * b28 - 2 b11 * b31 + 2 b11 * b32 
  + 2 b12 * b26 - 2 b12 * b29 - 2 b12 * b31 + 2 b12 * b33 - 2 b13 * b27 - 2 b13 * b30 - 2 b13 * b32 + 2 b13 * b33 
  - 2 b14 * b24 - 2 b14 * b34 - 2 b14 * b35 - 2 b14 * b36 + 2 b15 * b25 + 2 b15 * b34 + 2 b15 * b37 - 2 b15 * b38 
  + 2 b16 * b26 - 2 b16 * b35 + 2 b16 * b37 - 2 b16 * b39 - 2 b17 * b27 + 2 b17 * b36 - 2 b17 * b38 + 2 b17 * b39 
  + 2 b18 * b28 + 2 b18 * b34 + 2 b18 * b40 + 2 b18 * b41 - 2 b19 * b29 - 2 b19 * b35 + 2 b19 * b40 - 2 b19 * b42 
  + 2 b20 * b30 + 2 b20 * b36 - 2 b20 * b41 - 2 b20 * b42 - 2 b21 * b31 - 2 b21 * b37 + 2 b21 * b40 - 2 b21 * b43 
  - 2 b22 * b32 + 2 b22 * b38 + 2 b22 * b41 + 2 b22 * b43 - 2 b23 * b33 - 2 b23 * b39 - 2 b23 * b42 - 2 b23 * b43 
  + 2 b24 * b44 + 2 b24 * b45 + 2 b24 * b46 + 2 b25 * b44 + 2 b25 * b47 + 2 b25 * b48 - 2 b26 * b45 + 2 b26 * b47 
  + 2 b26 * b49 - 2 b27 * b46 - 2 b27 * b48 - 2 b27 * b49 + 2 b28 * b44 - 2 b28 * b50 + 2 b28 * b51 - 2 b29 * b45 
  - 2 b29 * b50 - 2 b29 * b52 + 2 b30 * b46 + 2 b30 * b51 + 2 b30 * b52 - 2 b31 * b47 + 2 b31 * b50 + 2 b31 * b53 
  + 2 b32 * b48 + 2 b32 * b51 + 2 b32 * b53 - 2 b33 * b49 + 2 b33 * b52 + 2 b33 * b53 - 2 b34 * b44 - 2 b34 * b54 
  + 2 b34 * b55 + 2 b35 * b45 - 2 b35 * b54 + 2 b35 * b56 + 2 b36 * b46 - 2 b36 * b55 - 2 b36 * b56 - 2 b37 * b47 
  + 2 b37 * b54 - 2 b37 * b57 + 2 b38 * b48 - 2 b38 * b55 + 2 b38 * b57 - 2 b39 * b49 - 2 b39 * b56 - 2 b39 * b57 
  - 2 b40 * b50 + 2 b40 * b54 - 2 b40 * b58 - 2 b41 * b51 + 2 b41 * b55 - 2 b41 * b58 - 2 b42 * b52 - 2 b42 * b56 
  + 2 b42 * b58 - 2 b43 * b53 + 2 b43 * b57 + 2 b43 * b58 - 2 b44 * b59 + 2 b44 * b60 + 2 b45 * b59 + 2 b45 * b61 
  - 2 b46 * b60 + 2 b46 * b61 + 2 b47 * b59 - 2 b47 * b62 - 2 b48 * b60 + 2 b48 * b62 + 2 b49 * b61 - 2 b49 * b62 
  + 2 b50 * b59 - 2 b50 * b63 - 2 b51 * b60 - 2 b51 * b63 - 2 b52 * b61 + 2 b52 * b63 + 2 b53 * b62 - 2 b53 * b63 
  - 2 b54 * b59 - 2 b54 * b64 + 2 b55 * b60 - 2 b55 * b64 - 2 b56 * b61 + 2 b56 * b64 - 2 b57 * b62 - 2 b57 * b64 
  - 2 b58 * b63 + 2 b58 * b64 - 2 b59 * b65 - 2 b60 * b65 + 2 b61 * b65 + 2 b62 * b65 + 2 b63 * b65 - 2 b64 * b65 
  - 2 b66 * b67 + 2 b66 * b68 - 2 b66 * b69 - 2 b66 * b70 + 2 b66 * b71 - 2 b66 * b72 + 2 b67 * b73 + 2 b67 * b74 
  + 2 b67 * b75 + 2 b67 * b76 - 2 b67 * b77 - 2 b68 * b73 + 2 b68 * b78 + 2 b68 * b79 + 2 b68 * b80 + 2 b68 * b81 
  + 2 b69 * b74 - 2 b69 * b78 - 2 b69 * b82 + 2 b69 * b83 + 2 b69 * b84 - 2 b70 * b75 - 2 b70 * b79 + 2 b70 * b82 
  - 2 b70 * b85 - 2 b70 * b86 + 2 b71 * b76 + 2 b71 * b80 - 2 b71 * b83 + 2 b71 * b85 + 2 b71 * b87 + 2 b72 * b77 
  - 2 b72 * b81 - 2 b72 * b84 + 2 b72 * b86 + 2 b72 * b87 + 2 b73 * b88 - 2 b73 * b89 - 2 b73 * b90 - 2 b73 * b91 
  + 2 b74 * b88 + 2 b74 * b92 + 2 b74 * b93 - 2 b74 * b94 - 2 b75 * b89 + 2 b75 * b92 - 2 b75 * b95 + 2 b75 * b96 
  + 2 b76 * b90 - 2 b76 * b93 - 2 b76 * b95 + 2 b76 * b97 - 2 b77 * b91 - 2 b77 * b94 - 2 b77 * b96 + 2 b77 * b97 
  - 2 b78 * b88 - 2 b78 * b98 - 2 b78 * b99 - 2 b78 * b100 + 2 b79 * b89 + 2 b79 * b98 + 2 b79 * b101 
  - 2 b79 * b102 + 2 b80 * b90 - 2 b80 * b99 + 2 b80 * b101 - 2 b80 * b103 - 2 b81 * b91 + 2 b81 * b100 
  - 2 b81 * b102 + 2 b81 * b103 + 2 b82 * b92 + 2 b82 * b98 + 2 b82 * b104 + 2 b82 * b105 - 2 b83 * b93 
  - 2 b83 * b99 + 2 b83 * b104 - 2 b83 * b106 + 2 b84 * b94 + 2 b84 * b100 - 2 b84 * b105 - 2 b84 * b106 
  - 2 b85 * b95 - 2 b85 * b101 + 2 b85 * b104 - 2 b85 * b107 - 2 b86 * b96 + 2 b86 * b102 + 2 b86 * b105 
  + 2 b86 * b107 - 2 b87 * b97 - 2 b87 * b103 - 2 b87 * b106 - 2 b87 * b107 + 2 b88 * b108 + 2 b88 * b109 
  + 2 b88 * b110 + 2 b89 * b108 + 2 b89 * b111 + 2 b89 * b112 - 2 b90 * b109 + 2 b90 * b111 + 2 b90 * b113 
  - 2 b91 * b110 - 2 b91 * b112 - 2 b91 * b113 + 2 b92 * b108 - 2 b92 * b114 + 2 b92 * b115 - 2 b93 * b109 
  - 2 b93 * b114 - 2 b93 * b116 + 2 b94 * b110 + 2 b94 * b115 + 2 b94 * b116 - 2 b95 * b111 + 2 b95 * b114 
  + 2 b95 * b117 + 2 b96 * b112 + 2 b96 * b115 + 2 b96 * b117 - 2 b97 * b113 + 2 b97 * b116 + 2 b97 * b117 
  - 2 b98 * b108 - 2 b98 * b118 + 2 b98 * b119 + 2 b99 * b109 - 2 b99 * b118 + 2 b99 * b120 + 2 b100 * b110 
  - 2 b100 * b119 - 2 b100 * b120 - 2 b101 * b111 + 2 b101 * b118 - 2 b101 * b121 + 2 b102 * b112 - 2 b102 * b119 
  + 2 b102 * b121 - 2 b103 * b113 - 2 b103 * b120 - 2 b103 * b121 - 2 b104 * b114 + 2 b104 * b118 - 2 b104 * b122 
  - 2 b105 * b115 + 2 b105 * b119 - 2 b105 * b122 - 2 b106 * b116 - 2 b106 * b120 + 2 b106 * b122 - 2 b107 * b117 
  + 2 b107 * b121 + 2 b107 * b122 - 2 b108 * b123 + 2 b108 * b124 + 2 b109 * b123 + 2 b109 * b125 - 2 b110 * b124 
  + 2 b110 * b125 + 2 b111 * b123 - 2 b111 * b126 - 2 b112 * b124 + 2 b112 * b126 + 2 b113 * b125 - 2 b113 * b126 
  + 2 b114 * b123 - 2 b114 * b127 - 2 b115 * b124 - 2 b115 * b127 - 2 b116 * b125 + 2 b116 * b127 + 2 b117 * b126 
  - 2 b117 * b127 - 2 b118 * b123 - 2 b118 * b128 + 2 b119 * b124 - 2 b119 * b128 - 2 b120 * b125 + 2 b120 * b128 
  - 2 b121 * b126 - 2 b121 * b128 - 2 b122 * b127 + 2 b122 * b128 - 2 b123 * b129 - 2 b124 * b129 + 2 b125 * b129 
  + 2 b126 * b129 + 2 b127 * b129 - 2 b128 * b129 - 2 b130 * b131 + 2 b130 * b132 - 2 b130 * b133 - 2 b130 * b134 
  + 2 b130 * b135 - 2 b130 * b136 + 2 b131 * b137 + 2 b131 * b138 + 2 b131 * b139 + 2 b131 * b140 - 2 b131 * b141 
  - 2 b132 * b137 + 2 b132 * b142 + 2 b132 * b143 + 2 b132 * b144 + 2 b132 * b145 + 2 b133 * b138 - 2 b133 * b142 
  - 2 b133 * b146 + 2 b133 * b147 + 2 b133 * b148 - 2 b134 * b139 - 2 b134 * b143 + 2 b134 * b146 - 2 b134 * b149 
  - 2 b134 * b150 + 2 b135 * b140 + 2 b135 * b144 - 2 b135 * b147 + 2 b135 * b149 + 2 b135 * b151 + 2 b136 * b141 
  - 2 b136 * b145 - 2 b136 * b148 + 2 b136 * b150 + 2 b136 * b151 + 2 b137 * b152 - 2 b137 * b153 - 2 b137 * b154 
  - 2 b137 * b155 + 2 b138 * b152 + 2 b138 * b156 + 2 b138 * b157 - 2 b138 * b158 - 2 b139 * b153 + 2 b139 * b156 
  - 2 b139 * b159 + 2 b139 * b160 + 2 b140 * b154 - 2 b140 * b157 - 2 b140 * b159 + 2 b140 * b161 - 2 b141 * b155 
  - 2 b141 * b158 - 2 b141 * b160 + 2 b141 * b161 - 2 b142 * b152 - 2 b142 * b162 - 2 b142 * b163 - 2 b142 * b164 
  + 2 b143 * b153 + 2 b143 * b162 + 2 b143 * b165 - 2 b143 * b166 + 2 b144 * b154 - 2 b144 * b163 + 2 b144 * b165 
  - 2 b144 * b167 - 2 b145 * b155 + 2 b145 * b164 - 2 b145 * b166 + 2 b145 * b167 + 2 b146 * b156 + 2 b146 * b162 
  + 2 b146 * b168 + 2 b146 * b169 - 2 b147 * b157 - 2 b147 * b163 + 2 b147 * b168 - 2 b147 * b170 + 2 b148 * b158 
  + 2 b148 * b164 - 2 b148 * b169 - 2 b148 * b170 - 2 b149 * b159 - 2 b149 * b165 + 2 b149 * b168 - 2 b149 * b171 
  - 2 b150 * b160 + 2 b150 * b166 + 2 b150 * b169 + 2 b150 * b171 - 2 b151 * b161 - 2 b151 * b167 - 2 b151 * b170 
  - 2 b151 * b171 + 2 b152 * b172 + 2 b152 * b173 + 2 b152 * b174 + 2 b153 * b172 + 2 b153 * b175 + 2 b153 * b176 
  - 2 b154 * b173 + 2 b154 * b175 + 2 b154 * b177 - 2 b155 * b174 - 2 b155 * b176 - 2 b155 * b177 + 2 b156 * b172 
  - 2 b156 * b178 + 2 b156 * b179 - 2 b157 * b173 - 2 b157 * b178 - 2 b157 * b180 + 2 b158 * b174 + 2 b158 * b179 
  + 2 b158 * b180 - 2 b159 * b175 + 2 b159 * b178 + 2 b159 * b181 + 2 b160 * b176 + 2 b160 * b179 + 2 b160 * b181 
  - 2 b161 * b177 + 2 b161 * b180 + 2 b161 * b181 - 2 b162 * b172 - 2 b162 * b182 + 2 b162 * b183 + 2 b163 * b173 
  - 2 b163 * b182 + 2 b163 * b184 + 2 b164 * b174 - 2 b164 * b183 - 2 b164 * b184 - 2 b165 * b175 + 2 b165 * b182 
  - 2 b165 * b185 + 2 b166 * b176 - 2 b166 * b183 + 2 b166 * b185 - 2 b167 * b177 - 2 b167 * b184 - 2 b167 * b185 
  - 2 b168 * b178 + 2 b168 * b182 - 2 b168 * b186 - 2 b169 * b179 + 2 b169 * b183 - 2 b169 * b186 - 2 b170 * b180 
  - 2 b170 * b184 + 2 b170 * b186 - 2 b171 * b181 + 2 b171 * b185 + 2 b171 * b186 - 2 b172 * b187 + 2 b172 * b188 
  + 2 b173 * b187 + 2 b173 * b189 - 2 b174 * b188 + 2 b174 * b189 + 2 b175 * b187 - 2 b175 * b190 - 2 b176 * b188 
  + 2 b176 * b190 + 2 b177 * b189 - 2 b177 * b190 + 2 b178 * b187 - 2 b178 * b191 - 2 b179 * b188 - 2 b179 * b191 
  - 2 b180 * b189 + 2 b180 * b191 + 2 b181 * b190 - 2 b181 * b191 - 2 b182 * b187 - 2 b182 * b192 + 2 b183 * b188 
  - 2 b183 * b192 - 2 b184 * b189 + 2 b184 * b192 - 2 b185 * b190 - 2 b185 * b192 - 2 b186 * b191 + 2 b186 * b192 
  - 2 b187 * b193 - 2 b188 * b193 + 2 b189 * b193 + 2 b190 * b193 + 2 b191 * b193 - 2 b192 * b193 ]/2
  

Subject To
 e2: b2 + b66 + b130 = 1
 e3: b3 + b67 + b131 = 1
 e4: b9 + b73 + b137 = 1
 e5: b4 + b68 + b132 = 1
 e6: b5 + b69 + b133 = 1
 e7: b10 + b74 + b138 = 1
 e8: b24 + b88 + b152 = 1
 e9: b14 + b78 + b142 = 1
 e10: b18 + b82 + b146 = 1
 e11: b28 + b92 + b156 = 1
 e12: b44 + b108 + b172 = 1
 e13: b34 + b98 + b162 = 1
 e14: b6 + b70 + b134 = 1
 e15: b11 + b75 + b139 = 1
 e16: b25 + b89 + b153 = 1
 e17: b15 + b79 + b143 = 1
 e18: b7 + b71 + b135 = 1
 e19: b12 + b76 + b140 = 1
 e20: b26 + b90 + b154 = 1
 e21: b16 + b80 + b144 = 1
 e22: b19 + b83 + b147 = 1
 e23: b29 + b93 + b157 = 1
 e24: b45 + b109 + b173 = 1
 e25: b35 + b99 + b163 = 1
 e26: b40 + b104 + b168 = 1
 e27: b50 + b114 + b178 = 1
 e28: b59 + b123 + b187 = 1
 e29: b54 + b118 + b182 = 1
 e30: b21 + b85 + b149 = 1
 e31: b31 + b95 + b159 = 1
 e32: b47 + b111 + b175 = 1
 e33: b37 + b101 + b165 = 1
 e34: b23 + b87 + b151 = 1
 e35: b33 + b97 + b161 = 1
 e36: b49 + b113 + b177 = 1
 e37: b39 + b103 + b167 = 1
 e38: b42 + b106 + b170 = 1
 e39: b52 + b116 + b180 = 1
 e40: b61 + b125 + b189 = 1
 e41: b56 + b120 + b184 = 1
 e42: b58 + b122 + b186 = 1
 e43: b63 + b127 + b191 = 1
 e44: b65 + b129 + b193 = 1
 e45: b64 + b128 + b192 = 1
 e46: b43 + b107 + b171 = 1
 e47: b53 + b117 + b181 = 1
 e48: b62 + b126 + b190 = 1
 e49: b57 + b121 + b185 = 1
 e50: b8 + b72 + b136 = 1
 e51: b13 + b77 + b141 = 1
 e52: b27 + b91 + b155 = 1
 e53: b17 + b81 + b145 = 1
 e54: b20 + b84 + b148 = 1
 e55: b30 + b94 + b158 = 1
 e56: b46 + b110 + b174 = 1
 e57: b36 + b100 + b164 = 1
 e58: b41 + b105 + b169 = 1
 e59: b51 + b115 + b179 = 1
 e60: b60 + b124 + b188 = 1
 e61: b55 + b119 + b183 = 1
 e62: b22 + b86 + b150 = 1
 e63: b32 + b96 + b160 = 1
 e64: b48 + b112 + b176 = 1
 e65: b38 + b102 + b166 = 1

Binary
 b2 b3 b4 b5 b6 b7 b8 b9 b10 b11 b12 b13 b14 b15 b16 b17 b18 b19 b20 b21 b22 b23 b24 b25 b26
 b27 b28 b29 b30 b31 b32 b33 b34 b35 b36 b37 b38 b39 b40 b41 b42 b43 b44 b45 b46 b47 b48 b49
 b50 b51 b52 b53 b54 b55 b56 b57 b58 b59 b60 b61 b62 b63 b64 b65 b66 b67 b68 b69 b70 b71 b72
 b73 b74 b75 b76 b77 b78 b79 b80 b81 b82 b83 b84 b85 b86 b87 b88 b89 b90 b91 b92 b93 b94 b95
 b96 b97 b98 b99 b100 b101 b102 b103 b104 b105 b106 b107 b108 b109 b110 b111 b112 b113 b114
 b115 b116 b117 b118 b119 b120 b121 b122 b123 b124 b125 b126 b127 b128 b129 b130 b131 b132 b133
 b134 b135 b136 b137 b138 b139 b140 b141 b142 b143 b144 b145 b146 b147 b148 b149 b150 b151 b152
 b153 b154 b155 b156 b157 b158 b159 b160 b161 b162 b163 b164 b165 b166 b167 b168 b169 b170 b171
 b172 b173 b174 b175 b176 b177 b178 b179 b180 b181 b182 b183 b184 b185 b186 b187 b188 b189 b190
 b191 b192 b193

End
